
  25    0


   0  13 2 3 4 5 6 7 10 11 12 21 22 23 24 
   4   4 18 17 9 8 
   2   4 20 16 15 14 
   3   3 18 14 13 
   5   3 16 15 14 
   9   2 19 13 
   9   2 17 13 
   9   1 14 
   1   1 13 
   4   1 16 
   6   1 15 
   8   1 13 
   6   1 25
  10   1 25
   2   1 25
   2   1 25
   5   1 25
   6   1 25
   7   1 25
   8   1 25
   2   1 25
   9   1 25
   9   1 25
   7   1 25
   0   0 
